<number of tasks>
35

<cycle time>
49

<task times>
1 29
2 3
3 5
4 22
5 6
6 14
7 2
8 5
9 22
10 30
11 23
12 30
13 23
14 2
15 19
16 29
17 2
18 2
19 19
20 29
21 6
22 10
23 16
24 23
25 5
26 5
27 5
28 40
29 2
30 5
31 5
32 1
33 40
34 2
35 2

<precedence relations>
1,2
1,5
1,10
1,12
2,3
3,4
4,11
5,6
6,7
6,8
7,14
7,18
8,9
9,13
10,14
11,28
11,33
12,18
13,28
13,33
14,15
15,16
16,21
17,20
18,19
19,20
20,21
21,22
21,25
21,30
22,23
23,24
24,27
25,26
26,27
27,28
27,33
27,34
28,29
30,31
31,32
32,33
33,35

<setup times forward>
1,2:3
1,5:1
1,10:2
1,12:1
1,17:3
2,3:5
2,5:2
2,6:5
2,7:3
2,8:6
2,9:1
2,10:5
2,12:4
2,13:2
2,14:1
2,15:8
2,16:7
2,18:4
2,19:2
2,20:1
2,21:1
2,22:6
2,23:1
2,24:4
2,25:5
2,26:7
2,27:8
2,30:3
2,31:1
2,34:3
3,4:3
3,5:3
3,7:2
3,8:1
3,9:4
3,12:1
3,13:3
3,14:4
3,15:3
3,16:2
3,17:5
3,18:1
3,19:3
3,20:4
3,21:4
3,22:1
3,23:4
3,24:1
3,26:2
3,27:3
3,30:2
3,31:4
3,32:5
3,34:2
4,6:3
4,7:1
4,8:4
4,9:1
4,10:3
4,11:5
4,12:2
4,14:1
4,15:6
4,16:5
4,17:2
4,18:2
4,20:1
4,21:1
4,22:4
4,23:1
4,24:2
4,25:3
4,26:5
4,27:6
4,30:1
4,31:1
4,32:2
4,34:1
5,2:2
5,3:3
5,6:3
5,10:3
5,11:5
5,12:2
5,17:2
6,2:5
6,4:3
6,7:2
6,8:1
6,11:2
6,12:1
6,17:5
7,2:3
7,3:2
7,4:1
7,8:3
7,9:2
7,10:2
7,11:4
7,12:1
7,13:1
7,14:2
7,17:3
7,18:1
8,2:6
8,3:1
8,4:4
8,7:3
8,9:5
8,10:1
8,11:1
8,12:2
8,14:5
8,15:2
8,16:1
8,17:6
8,18:2
8,19:4
8,20:5
8,21:5
8,23:5
8,24:2
8,25:1
8,26:1
8,27:2
8,30:3
8,31:5
8,32:6
8,34:3
9,2:1
9,3:4
9,4:1
9,7:2
9,10:4
9,11:6
9,12:3
9,13:1
9,15:7
9,16:6
9,17:1
9,18:3
9,19:1
9,22:5
9,24:3
9,25:4
9,26:6
9,27:7
9,30:2
9,32:1
9,34:2
10,2:5
10,4:3
10,5:3
10,7:2
10,8:1
10,9:4
10,11:2
10,12:1
10,13:3
10,14:4
10,17:5
10,18:1
10,19:3
10,20:4
11,5:5
11,6:2
11,7:4
11,8:1
11,9:6
11,10:2
11,12:3
11,13:5
11,14:6
11,15:1
11,17:7
11,18:3
11,19:5
11,20:6
11,21:6
11,22:1
11,23:6
11,24:3
11,25:2
11,27:1
11,28:5
11,30:4
11,31:6
11,32:7
11,33:4
11,34:4
12,2:4
12,3:1
12,4:2
12,5:2
12,6:1
12,7:1
12,8:2
12,9:3
12,10:1
12,11:3
12,13:2
12,14:3
12,15:4
12,16:3
12,17:4
13,2:2
13,3:3
13,7:1
13,10:3
13,11:5
13,12:2
13,14:1
13,15:6
13,16:5
13,17:2
13,18:2
13,20:1
13,21:1
13,22:4
13,23:1
13,24:2
13,25:3
13,26:5
13,27:6
13,30:1
13,31:1
13,32:2
13,33:1
13,34:1
14,2:1
14,3:4
14,4:1
14,8:5
14,11:6
14,12:3
14,13:1
14,15:7
14,17:1
14,18:3
14,19:1
15,2:8
15,3:3
15,4:6
15,8:2
15,9:7
15,11:1
15,12:4
15,13:6
15,16:1
15,17:8
15,18:4
15,19:6
15,20:7
16,2:7
16,3:2
16,4:5
16,8:1
16,9:6
16,12:3
16,13:5
16,17:7
16,18:3
16,19:5
16,20:6
16,21:6
17,1:3
17,3:5
17,4:2
17,5:2
17,6:5
17,7:3
17,8:6
17,9:1
17,10:5
17,11:7
17,12:4
17,13:2
17,14:1
17,15:8
17,16:7
17,18:4
17,19:2
17,20:1
18,2:4
18,3:1
18,4:2
18,8:2
18,9:3
18,10:1
18,11:3
18,13:2
18,14:3
18,15:4
18,16:3
18,17:4
18,19:2
19,2:2
19,3:3
19,8:4
19,9:1
19,10:3
19,11:5
19,14:1
19,15:6
19,16:5
19,17:2
19,20:1
20,2:1
20,3:4
20,4:1
20,8:5
20,10:4
20,11:6
20,13:1
20,15:7
20,16:6
21,2:1
21,3:4
21,4:1
21,8:5
21,11:6
21,13:1
21,22:5
21,25:4
21,30:2
22,2:6
22,3:1
22,4:4
22,9:5
22,11:1
22,13:4
22,23:5
22,25:1
22,26:1
22,30:3
22,31:5
22,32:6
23,2:1
23,3:4
23,4:1
23,8:5
23,11:6
23,13:1
23,24:3
23,25:4
23,26:6
23,30:2
23,32:1
24,2:4
24,3:1
24,4:2
24,8:2
24,9:3
24,11:3
24,13:2
24,25:1
24,26:3
24,27:4
24,30:1
24,31:3
24,32:4
25,2:5
25,4:3
25,8:1
25,9:4
25,11:2
25,13:3
25,22:1
25,23:4
25,24:1
25,26:2
25,30:2
25,31:4
25,32:5
26,2:7
26,3:2
26,4:5
26,8:1
26,9:6
26,13:5
26,22:1
26,23:6
26,24:3
26,27:1
26,30:4
26,31:6
26,32:7
27,2:8
27,3:3
27,4:6
27,8:2
27,9:7
27,11:1
27,13:6
27,28:6
27,30:5
27,31:7
27,32:8
27,33:5
27,34:5
28,29:5
28,30:1
28,31:1
28,32:2
28,33:1
28,34:1
28,35:6
29,30:4
29,31:6
29,32:7
29,33:4
29,34:4
29,35:1
30,2:3
30,3:2
30,4:1
30,8:3
30,9:2
30,11:4
30,13:1
30,22:3
30,23:2
30,24:1
30,25:2
30,26:4
30,27:5
30,28:1
30,29:4
30,31:2
31,2:1
31,3:4
31,4:1
31,8:5
31,11:6
31,13:1
31,22:5
31,24:3
31,25:4
31,26:6
31,27:7
31,28:1
31,29:6
31,32:1
31,34:2
32,3:5
32,4:2
32,8:6
32,9:1
32,11:7
32,13:2
32,22:6
32,23:1
32,24:4
32,25:5
32,26:7
32,27:8
32,28:2
32,29:7
32,33:3
32,34:3
33,28:1
33,29:4
33,35:5
34,2:3
34,3:2
34,4:1
34,8:3
34,9:2
34,11:4
34,13:1
34,28:1
34,29:4
34,31:2
34,32:3
34,35:5
35,28:6
35,29:1
35,34:5

<setup times backward>
1,1:9
1,17:6
2,1:12
2,2:9
2,5:11
2,6:14
2,7:12
2,8:15
2,9:10
2,10:14
2,12:13
2,13:11
2,14:10
2,15:17
2,16:16
2,17:9
2,18:13
2,19:11
2,20:10
2,21:10
2,22:15
2,23:10
2,24:13
2,25:14
2,26:16
2,27:17
2,30:12
2,31:10
2,32:9
2,34:12
3,1:7
3,2:4
3,3:9
3,5:6
3,6:9
3,7:7
3,8:10
3,9:5
3,10:9
3,12:8
3,13:6
3,14:5
3,15:12
3,16:11
3,17:4
3,18:8
3,19:6
3,20:5
3,21:5
3,22:10
3,23:5
3,24:8
3,25:9
3,26:11
3,27:12
3,30:7
3,31:5
3,32:4
3,34:7
4,1:10
4,2:7
4,3:12
4,4:9
4,5:9
4,6:12
4,7:10
4,8:13
4,9:8
4,10:12
4,12:11
4,13:9
4,14:8
4,15:15
4,16:14
4,17:7
4,18:11
4,19:9
4,20:8
4,21:8
4,22:13
4,23:8
4,24:11
4,25:12
4,26:14
4,27:15
4,30:10
4,31:8
4,32:7
4,34:10
5,1:10
5,2:7
5,3:12
5,4:9
5,5:9
5,10:12
5,11:14
5,12:11
5,17:7
6,1:7
6,2:4
6,3:9
6,4:6
6,5:6
6,6:9
6,10:9
6,11:11
6,12:8
6,17:4
7,1:9
7,2:6
7,3:11
7,4:8
7,5:8
7,6:11
7,7:9
7,8:12
7,9:7
7,10:11
7,11:13
7,12:10
7,13:8
7,17:6
8,1:6
8,2:3
8,3:8
8,4:5
8,5:5
8,6:8
8,7:6
8,8:9
8,10:8
8,11:10
8,12:7
8,14:4
8,15:11
8,16:10
8,17:3
8,18:7
8,19:5
8,20:4
8,21:4
8,22:9
8,23:4
8,24:7
8,25:8
8,26:10
8,27:11
8,30:6
8,31:4
8,32:3
8,34:6
9,1:11
9,2:8
9,3:13
9,4:10
9,5:10
9,6:13
9,7:11
9,8:14
9,9:9
9,10:13
9,11:15
9,12:12
9,14:9
9,15:16
9,16:15
9,17:8
9,18:12
9,19:10
9,20:9
9,21:9
9,22:14
9,23:9
9,24:12
9,25:13
9,26:15
9,27:16
9,30:11
9,31:9
9,32:8
9,34:11
10,1:7
10,2:4
10,3:9
10,4:6
10,5:6
10,6:9
10,7:7
10,8:10
10,9:5
10,10:9
10,11:11
10,12:8
10,13:6
10,17:4
10,18:8
10,19:6
10,20:5
11,1:5
11,2:2
11,3:7
11,4:4
11,5:4
11,6:7
11,7:5
11,8:8
11,9:3
11,10:7
11,11:9
11,12:6
11,13:4
11,14:3
11,15:10
11,16:9
11,17:2
11,18:6
11,19:4
11,20:3
11,21:3
11,22:8
11,23:3
11,24:6
11,25:7
11,26:9
11,27:10
11,30:5
11,31:3
11,32:2
11,34:5
12,1:8
12,2:5
12,3:10
12,4:7
12,5:7
12,6:10
12,7:8
12,8:11
12,9:6
12,10:10
12,11:12
12,12:9
12,13:7
12,14:6
12,15:13
12,16:12
12,17:5
13,1:10
13,2:7
13,3:12
13,4:9
13,5:9
13,6:12
13,7:10
13,8:13
13,9:8
13,10:12
13,11:14
13,12:11
13,13:9
13,14:8
13,15:15
13,16:14
13,17:7
13,18:11
13,19:9
13,20:8
13,21:8
13,22:13
13,23:8
13,24:11
13,25:12
13,26:14
13,27:15
13,30:10
13,31:8
13,32:7
13,34:10
14,1:11
14,2:8
14,3:13
14,4:10
14,5:10
14,6:13
14,7:11
14,8:14
14,9:9
14,10:13
14,11:15
14,12:12
14,13:10
14,14:9
14,17:8
14,18:12
14,19:10
14,20:9
15,1:4
15,2:1
15,3:6
15,4:3
15,5:3
15,6:6
15,7:4
15,8:7
15,9:2
15,10:6
15,11:8
15,12:5
15,13:3
15,14:2
15,15:9
15,17:1
15,18:5
15,19:3
15,20:2
16,1:5
16,2:2
16,3:7
16,4:4
16,5:4
16,6:7
16,7:5
16,8:8
16,9:3
16,10:7
16,11:9
16,12:6
16,13:4
16,14:3
16,15:10
16,16:9
16,17:2
16,18:6
16,19:4
16,20:3
17,1:12
17,2:9
17,3:14
17,4:11
17,5:11
17,6:14
17,7:12
17,8:15
17,9:10
17,10:14
17,11:16
17,12:13
17,13:11
17,14:10
17,15:17
17,16:16
17,17:9
17,18:13
17,19:11
18,1:8
18,2:5
18,3:10
18,4:7
18,5:7
18,6:10
18,7:8
18,8:11
18,9:6
18,10:10
18,11:12
18,12:9
18,13:7
18,14:6
18,15:13
18,16:12
18,17:5
18,18:9
19,1:10
19,2:7
19,3:12
19,4:9
19,5:9
19,6:12
19,7:10
19,8:13
19,9:8
19,10:12
19,11:14
19,12:11
19,13:9
19,14:8
19,15:15
19,16:14
19,17:7
19,18:11
19,19:9
20,1:11
20,2:8
20,3:13
20,4:10
20,5:10
20,6:13
20,7:11
20,8:14
20,9:9
20,10:13
20,11:15
20,12:12
20,13:10
20,14:9
20,15:16
20,16:15
20,17:8
20,18:12
20,19:10
20,20:9
21,1:11
21,2:8
21,3:13
21,4:10
21,5:10
21,6:13
21,7:11
21,8:14
21,9:9
21,10:13
21,11:15
21,12:12
21,13:10
21,14:9
21,15:16
21,16:15
21,17:8
21,18:12
21,19:10
21,20:9
21,21:9
22,1:6
22,2:3
22,3:8
22,4:5
22,5:5
22,6:8
22,7:6
22,8:9
22,9:4
22,10:8
22,11:10
22,12:7
22,13:5
22,14:4
22,15:11
22,16:10
22,17:3
22,18:7
22,19:5
22,20:4
22,21:4
22,22:9
22,25:8
22,26:10
22,30:6
22,31:4
22,32:3
23,1:11
23,2:8
23,3:13
23,4:10
23,5:10
23,6:13
23,7:11
23,8:14
23,9:9
23,10:13
23,11:15
23,12:12
23,13:10
23,14:9
23,15:16
23,16:15
23,17:8
23,18:12
23,19:10
23,20:9
23,21:9
23,22:14
23,23:9
23,25:13
23,26:15
23,30:11
23,31:9
23,32:8
24,1:8
24,2:5
24,3:10
24,4:7
24,5:7
24,6:10
24,7:8
24,8:11
24,9:6
24,10:10
24,11:12
24,12:9
24,13:7
24,14:6
24,15:13
24,16:12
24,17:5
24,18:9
24,19:7
24,20:6
24,21:6
24,22:11
24,23:6
24,24:9
24,25:10
24,26:12
24,30:8
24,31:6
24,32:5
25,1:7
25,2:4
25,3:9
25,4:6
25,5:6
25,6:9
25,7:7
25,8:10
25,9:5
25,10:9
25,11:11
25,12:8
25,13:6
25,14:5
25,15:12
25,16:11
25,17:4
25,18:8
25,19:6
25,20:5
25,21:5
25,22:10
25,23:5
25,24:8
25,25:9
25,30:7
25,31:5
25,32:4
26,1:5
26,2:2
26,3:7
26,4:4
26,5:4
26,6:7
26,7:5
26,8:8
26,9:3
26,10:7
26,11:9
26,12:6
26,13:4
26,14:3
26,15:10
26,16:9
26,17:2
26,18:6
26,19:4
26,20:3
26,21:3
26,22:8
26,23:3
26,24:6
26,25:7
26,26:9
26,30:5
26,31:3
26,32:2
27,1:4
27,2:1
27,3:6
27,4:3
27,5:3
27,6:6
27,7:4
27,8:7
27,9:2
27,10:6
27,11:8
27,12:5
27,13:3
27,14:2
27,15:9
27,16:8
27,17:1
27,18:5
27,19:3
27,20:2
27,21:2
27,22:7
27,23:2
27,24:5
27,25:6
27,26:8
27,27:9
27,30:4
27,31:2
27,32:1
28,1:10
28,2:7
28,3:12
28,4:9
28,5:9
28,6:12
28,7:10
28,8:13
28,9:8
28,10:12
28,11:14
28,12:11
28,13:9
28,14:8
28,15:15
28,16:14
28,17:7
28,18:11
28,19:9
28,20:8
28,21:8
28,22:13
28,23:8
28,24:11
28,25:12
28,26:14
28,27:15
28,28:9
28,30:10
28,31:8
28,32:7
28,33:10
28,34:10
28,35:15
29,1:5
29,2:2
29,3:7
29,4:4
29,5:4
29,6:7
29,7:5
29,8:8
29,9:3
29,10:7
29,11:9
29,12:6
29,13:4
29,14:3
29,15:10
29,16:9
29,17:2
29,18:6
29,19:4
29,20:3
29,21:3
29,22:8
29,23:3
29,24:6
29,25:7
29,26:9
29,27:10
29,28:4
29,29:9
29,30:5
29,31:3
29,32:2
29,33:5
29,34:5
29,35:10
30,1:9
30,2:6
30,3:11
30,4:8
30,5:8
30,6:11
30,7:9
30,8:12
30,9:7
30,10:11
30,11:13
30,12:10
30,13:8
30,14:7
30,15:14
30,16:13
30,17:6
30,18:10
30,19:8
30,20:7
30,21:7
30,22:12
30,23:7
30,24:10
30,25:11
30,26:13
30,27:14
30,28:8
30,29:13
30,30:9
30,34:9
31,1:11
31,2:8
31,3:13
31,4:10
31,5:10
31,6:13
31,7:11
31,8:14
31,9:9
31,10:13
31,11:15
31,12:12
31,13:10
31,14:9
31,15:16
31,16:15
31,17:8
31,18:12
31,19:10
31,20:9
31,21:9
31,22:14
31,23:9
31,24:12
31,25:13
31,26:15
31,27:16
31,28:10
31,29:15
31,30:11
31,31:9
31,34:11
32,1:12
32,2:9
32,3:14
32,4:11
32,5:11
32,6:14
32,7:12
32,8:15
32,9:10
32,10:14
32,11:16
32,12:13
32,13:11
32,14:10
32,15:17
32,16:16
32,17:9
32,18:13
32,19:11
32,20:10
32,21:10
32,22:15
32,23:10
32,24:13
32,25:14
32,26:16
32,27:17
32,28:11
32,29:16
32,30:12
32,31:10
32,32:9
32,34:12
33,1:9
33,2:6
33,3:11
33,4:8
33,5:8
33,6:11
33,7:9
33,8:12
33,9:7
33,10:11
33,11:13
33,12:10
33,13:8
33,14:7
33,15:14
33,16:13
33,17:6
33,18:10
33,19:8
33,20:7
33,21:7
33,22:12
33,23:7
33,24:10
33,25:11
33,26:13
33,27:14
33,28:8
33,29:13
33,30:9
33,31:7
33,32:6
33,33:9
33,34:9
34,1:9
34,2:6
34,3:11
34,4:8
34,5:8
34,6:11
34,7:9
34,8:12
34,9:7
34,10:11
34,11:13
34,12:10
34,13:8
34,14:7
34,15:14
34,16:13
34,17:6
34,18:10
34,19:8
34,20:7
34,21:7
34,22:12
34,23:7
34,24:10
34,25:11
34,26:13
34,27:14
34,28:8
34,29:13
34,30:9
34,31:7
34,32:6
34,33:9
34,34:9
34,35:14
35,1:4
35,2:1
35,3:6
35,4:3
35,5:3
35,6:6
35,7:4
35,8:7
35,9:2
35,10:6
35,11:8
35,12:5
35,13:3
35,14:2
35,15:9
35,16:8
35,17:1
35,18:5
35,19:3
35,20:2
35,21:2
35,22:7
35,23:2
35,24:5
35,25:6
35,26:8
35,27:9
35,28:3
35,29:8
35,30:4
35,31:2
35,32:1
35,33:4
35,34:4
35,35:9

<end>

<optimal SALBP-1 value>
11


<rand seed>
467321153

<Lower Bounds>
Lm1=10
Lms1=10
Lm2=7
Lm3=8
Lm4=11
Best=11

<Optimal Stations (Iterations: 10)>
17
